c is-unsat
p cnf 14 86
-7 -8 4 0
4 -6 7 0
-8 13 2 0
-7 -11 -1 0
-7 -9 -13 0
-7 13 -4 0
-14 12 -4 0
-2 -3 12 0
-7 2 -1 0
-5 1 -3 0
-9 -2 -3 0
7 1 -5 0
-3 -10 -5 0
4 -10 -9 0
2 -7 8 0
7 3 9 0
-1 8 -5 0
10 -13 -9 0
7 -10 -5 0
-14 4 3 0
2 3 11 0
-9 -13 -7 0
-9 -10 -8 0
-14 8 6 0
11 -6 -7 0
10 8 11 0
-10 7 5 0
-2 5 10 0
-14 -5 -12 0
-1 -6 -12 0
-3 -4 14 0
-3 5 -4 0
5 14 -11 0
-5 4 -13 0
-13 -11 -12 0
-8 -1 11 0
-9 -8 3 0
-14 2 -6 0
-14 8 -10 0
-6 -10 -8 0
4 2 -3 0
1 3 -11 0
12 7 -11 0
12 -6 -10 0
-7 11 1 0
-5 7 3 0
11 -10 -4 0
-9 -13 2 0
-12 -8 -11 0
9 6 -2 0
7 -4 -12 0
-9 -1 11 0
4 -11 -9 0
12 -9 -8 0
9 -5 -3 0
-10 7 -12 0
7 -3 -12 0
-11 -5 -2 0
5 -10 11 0
4 -5 7 0
-13 -14 -10 0
4 -11 1 0
-11 3 -5 0
-11 3 5 0
-10 -7 14 0
11 3 4 0
5 1 -13 0
-13 6 -7 0
12 -4 -1 0
4 -2 -8 0
12 -10 8 0
2 8 -6 0
-1 14 -13 0
-7 -12 3 0
-8 -6 -11 0
-4 -10 -7 0
-13 -1 -4 0
11 6 -3 0
12 -7 8 0
-8 10 5 0
-3 1 -13 0
-10 -3 -2 0
-11 -5 -2 0
4 -7 -1 0
-5 1 9 0
-12 -11 -2 0
